p edge 20 40
e 1 2
e 1 8
e 1 10
e 1 18
e 1 19
e 1 20
e 2 3
e 2 5
e 2 7
e 2 9
e 2 14
e 2 16
e 3 4
e 3 6
e 3 7
e 3 14
e 3 15
e 4 6
e 4 11
e 4 14
e 4 19
e 5 9
e 5 20
e 6 11
e 6 17
e 7 9
e 7 12
e 7 14
e 7 15
e 7 16
e 8 18
e 8 20
e 9 14
e 9 16
e 10 13
e 10 16
e 12 13
e 14 15
e 14 16
e 18 19
